unknown
(:binary-propagations  2042
 :decisions            424
 :del-clause           1021
 :final-checks         2
 :max-generation       1
 :max-memory           35.24
 :memory               24.16
 :mk-bool-var          5619
 :mk-clause            1299
 :mk-clause-binary     2598
 :num-allocs           400443919
 :num-checks           1
 :propagations         2174
 :quant-instantiations 1021
 :restarts             1
 :rlimit-count         1068919
 :time                 0.31)
